 Code  2833
 Dimension, Fixed Cost
   100        3000
 Facility, Client, Transportation Cost
     1       30           1
     1       37           3
     1       38           0
     1       48           2
     1       57           4
     1       70           3
     1       83           2
     1       84           1
     1       86           3
     1       90           2
     2       18           2
     2       19           4
     2       20           0
     2       28           0
     2       30           1
     2       38           2
     2       42           0
     2       51           2
     2       58           3
     2       62           3
     3       12           4
     3       14           0
     3       15           2
     3       22           3
     3       25           4
     3       47           4
     3       52           4
     3       66           2
     3       67           0
     3       69           4
     4       12           0
     4       35           4
     4       43           4
     4       47           2
     4       68           3
     4       74           1
     4       75           1
     4       78           4
     4       81           2
     4       89           2
     5        5           1
     5        7           2
     5        8           1
     5       20           3
     5       29           2
     5       37           1
     5       45           3
     5       48           4
     5       60           4
     5       68           1
     6        6           2
     6       13           0
     6       27           1
     6       41           1
     6       49           4
     6       60           1
     6       68           4
     6       72           1
     6       73           4
     6       79           1
     7       16           2
     7       24           1
     7       26           3
     7       30           0
     7       43           2
     7       58           0
     7       73           1
     7       76           2
     7       81           0
     7       85           4
     8       10           3
     8       11           0
     8       18           3
     8       25           0
     8       29           0
     8       56           0
     8       74           2
     8       90           3
     8       95           0
     8       97           2
     9        4           3
     9       35           0
     9       43           1
     9       55           0
     9       77           4
     9       88           0
     9       92           3
     9       94           3
     9       98           3
     9       99           1
    10       21           4
    10       22           0
    10       27           3
    10       40           2
    10       50           2
    10       75           1
    10       85           1
    10       86           2
    10       89           2
    10       90           0
    11       16           2
    11       23           4
    11       24           2
    11       42           1
    11       45           0
    11       54           4
    11       63           3
    11       64           1
    11       71           2
    11       75           1
    12        3           2
    12       17           4
    12       24           2
    12       59           1
    12       61           4
    12       62           1
    12       64           3
    12       79           0
    12       86           2
    12       93           3
    13       11           1
    13       14           0
    13       29           0
    13       30           2
    13       33           4
    13       41           0
    13       42           3
    13       59           3
    13       73           2
    13       79           3
    14       35           0
    14       38           1
    14       47           2
    14       60           3
    14       64           0
    14       80           1
    14       82           2
    14       83           2
    14       95           0
    14       96           2
    15        9           2
    15       21           3
    15       39           3
    15       53           3
    15       61           2
    15       67           3
    15       94           1
    15       96           0
    15       97           3
    15       98           0
    16       36           4
    16       54           2
    16       64           3
    16       67           2
    16       72           1
    16       80           2
    16       90           4
    16       91           1
    16       92           4
    16       94           4
    17        3           2
    17        8           3
    17       13           0
    17       14           2
    17       25           2
    17       33           3
    17       50           3
    17       55           1
    17       65           3
    17       80           1
    18        7           3
    18        9           0
    18       39           4
    18       57           1
    18       61           2
    18       63           0
    18       83           0
    18       87           1
    18       92           0
    18       96           2
    19        2           3
    19        9           4
    19       15           3
    19       16           2
    19       22           4
    19       31           3
    19       41           1
    19       44           3
    19       45           1
    19       50           4
    20        2           4
    20        7           1
    20        9           4
    20       36           2
    20       54           2
    20       66           2
    20       74           2
    20       78           1
    20       97           0
    20       98           0
    21        1           2
    21       20           3
    21       40           0
    21       55           0
    21       56           2
    21       62           4
    21       64           3
    21       69           0
    21       84           2
    21       87           3
    22        3           1
    22       22           0
    22       34           1
    22       52           1
    22       64           1
    22       74           4
    22       78           0
    22       79           1
    22       84           2
    22       86           4
    23       10           2
    23       27           0
    23       31           0
    23       47           4
    23       49           0
    23       51           0
    23       59           1
    23       61           3
    23       69           3
    23       79           4
    24        6           3
    24       10           0
    24       39           0
    24       56           0
    24       68           4
    24       72           0
    24       77           4
    24       79           4
    24       80           3
    24       81           2
    25        2           2
    25        3           2
    25       12           0
    25       46           4
    25       47           1
    25       56           3
    25       63           1
    25       72           3
    25       76           1
    25       81           1
    26        8           0
    26       27           4
    26       42           3
    26       57           0
    26       59           2
    26       74           3
    26       76           3
    26       92           0
    26       96           0
    26       99           4
    27        1           0
    27       11           0
    27       21           2
    27       22           2
    27       33           2
    27       46           1
    27       57           4
    27       68           2
    27       82           3
    27       83           3
    28        4           2
    28        5           0
    28       24           0
    28       30           0
    28       33           1
    28       37           2
    28       41           3
    28       43           2
    28       48           2
    28       82           2
    29        1           3
    29       28           4
    29       32           1
    29       39           0
    29       44           0
    29       78           0
    29       80           3
    29       86           2
    29       90           2
    29       98           0
    30        7           3
    30        9           2
    30       12           1
    30       15           4
    30       20           1
    30       37           2
    30       40           4
    30       44           1
    30       49           2
    30       54           4
    31        2           2
    31        6           0
    31       13           2
    31       19           2
    31       25           1
    31       29           1
    31       46           3
    31       47           1
    31       50           2
    31       59           1
    32       17           2
    32       55           1
    32       59           2
    32       60           3
    32       70           3
    32       74           2
    32       87           2
    32       92           1
    32       99           1
    32      100           3
    33        5           2
    33       10           3
    33       13           2
    33       16           0
    33       19           1
    33       52           2
    33       69           0
    33       88           1
    33       92           1
    33       95           1
    34        9           4
    34       13           2
    34       14           0
    34       34           3
    34       43           4
    34       55           3
    34       59           1
    34       63           0
    34       68           1
    34       85           1
    35        1           2
    35       10           0
    35       38           0
    35       61           4
    35       69           1
    35       81           0
    35       82           0
    35       90           2
    35       93           1
    35       94           1
    36       20           2
    36       27           3
    36       32           3
    36       33           0
    36       35           0
    36       46           0
    36       63           3
    36       79           3
    36       88           1
    36       93           4
    37        6           0
    37        8           1
    37       29           0
    37       30           3
    37       31           0
    37       37           1
    37       39           3
    37       61           0
    37       67           2
    37       85           2
    38       10           0
    38       15           0
    38       19           0
    38       21           4
    38       49           4
    38       57           1
    38       62           2
    38       65           0
    38       71           1
    38       83           1
    39        8           0
    39       19           1
    39       26           1
    39       31           1
    39       45           4
    39       48           3
    39       50           3
    39       77           1
    39       82           4
    39       96           0
    40        7           2
    40       21           3
    40       23           4
    40       25           0
    40       45           0
    40       49           1
    40       50           0
    40       63           1
    40       70           0
    40       73           3
    41        6           1
    41       26           0
    41       29           2
    41       39           0
    41       52           1
    41       54           1
    41       56           0
    41       57           2
    41       58           4
    41       67           0
    42       13           0
    42       33           0
    42       37           1
    42       52           0
    42       58           4
    42       66           4
    42       69           2
    42       70           0
    42       73           1
    42       82           2
    43        7           1
    43       16           2
    43       18           2
    43       21           1
    43       31           4
    43       36           3
    43       38           0
    43       58           1
    43       66           2
    43       67           4
    44        2           3
    44       33           0
    44       67           4
    44       68           3
    44       71           0
    44       73           2
    44       75           3
    44       80           1
    44       93           1
    44       99           4
    45        7           0
    45        8           2
    45       11           0
    45       25           4
    45       65           3
    45       76           3
    45       78           1
    45       83           2
    45       89           4
    45      100           3
    46       12           0
    46       28           4
    46       32           2
    46       35           2
    46       42           2
    46       62           0
    46       69           4
    46       80           4
    46       84           1
    46       87           4
    47       12           4
    47       19           2
    47       23           3
    47       26           2
    47       28           0
    47       33           4
    47       34           0
    47       49           3
    47       63           1
    47       70           4
    48       11           4
    48       26           3
    48       34           4
    48       40           4
    48       44           2
    48       62           3
    48       69           2
    48       86           3
    48       88           3
    48       97           0
    49        2           2
    49        5           4
    49       29           2
    49       36           2
    49       43           3
    49       56           4
    49       81           0
    49       87           1
    49       95           4
    49       97           0
    50        3           2
    50       16           1
    50       21           1
    50       27           1
    50       29           2
    50       48           0
    50       54           0
    50       60           1
    50       79           3
    50       92           0
    51        1           2
    51       16           0
    51       27           3
    51       30           1
    51       32           2
    51       44           1
    51       45           2
    51       48           3
    51       64           2
    51       66           1
    52       12           3
    52       18           4
    52       28           3
    52       38           0
    52       48           4
    52       58           0
    52       70           2
    52       75           2
    52       77           4
    52       94           1
    53       22           3
    53       38           3
    53       41           0
    53       43           4
    53       46           2
    53       54           3
    53       66           1
    53       88           1
    53       89           2
    53       91           4
    54        8           2
    54       17           1
    54       19           3
    54       22           4
    54       41           3
    54       51           0
    54       66           3
    54       74           2
    54       80           0
    54       92           4
    55        4           0
    55       15           2
    55       26           1
    55       31           4
    55       42           0
    55       51           1
    55       70           4
    55       85           2
    55       87           3
    55       91           4
    56       10           3
    56       15           0
    56       28           2
    56       71           0
    56       77           0
    56       95           4
    56       97           4
    56       98           4
    56       99           4
    56      100           0
    57       12           0
    57       18           2
    57       24           2
    57       36           4
    57       69           1
    57       72           0
    57       76           2
    57       78           2
    57       89           2
    57       93           3
    58       20           1
    58       30           3
    58       38           0
    58       44           2
    58       55           2
    58       58           0
    58       67           1
    58       68           4
    58       72           0
    58       74           4
    59       10           4
    59       14           1
    59       23           1
    59       32           4
    59       41           3
    59       42           1
    59       52           4
    59       60           3
    59       65           0
    59       79           3
    60        5           0
    60       12           3
    60       18           2
    60       40           4
    60       41           3
    60       47           4
    60       78           4
    60       91           3
    60       96           3
    60      100           2
    61       24           4
    61       26           1
    61       36           4
    61       37           2
    61       40           2
    61       46           3
    61       62           0
    61       70           0
    61       71           4
    61       77           1
    62        1           1
    62        3           4
    62       11           0
    62       33           0
    62       34           0
    62       43           3
    62       45           4
    62       50           3
    62       59           1
    62       64           4
    63       15           2
    63       17           3
    63       40           4
    63       42           3
    63       77           3
    63       82           3
    63       84           1
    63       86           0
    63       87           3
    63       88           2
    64        2           2
    64       40           3
    64       56           2
    64       58           2
    64       61           0
    64       78           3
    64       91           4
    64       93           1
    64       94           2
    64       95           2
    65        3           3
    65        4           1
    65        7           2
    65       11           1
    65       15           4
    65       16           2
    65       28           1
    65       32           0
    65       49           3
    65       54           1
    66        5           2
    66        9           0
    66       15           0
    66       22           1
    66       24           2
    66       28           3
    66       34           0
    66       55           0
    66       62           3
    66       76           4
    67       39           1
    67       90           1
    67       93           4
    67       94           0
    67       95           1
    67       96           1
    67       97           2
    67       98           4
    67       99           0
    67      100           1
    68        3           3
    68       28           4
    68       29           3
    68       31           3
    68       36           0
    68       46           0
    68       56           3
    68       57           1
    68       72           0
    68       74           4
    69       19           2
    69       23           4
    69       24           0
    69       57           2
    69       63           2
    69       71           4
    69       82           3
    69       84           3
    69       85           3
    69       92           2
    70       14           0
    70       19           4
    70       34           4
    70       55           3
    70       71           4
    70       72           3
    70       77           2
    70       89           0
    70       95           3
    70       98           3
    71        2           4
    71       13           4
    71       30           1
    71       40           4
    71       53           1
    71       57           3
    71       60           3
    71       61           4
    71       73           2
    71       83           4
    72       25           3
    72       31           0
    72       50           0
    72       53           4
    72       65           4
    72       71           4
    72       73           2
    72       74           4
    72       82           4
    72       84           2
    73       11           2
    73       26           2
    73       39           3
    73       44           4
    73       63           4
    73       75           0
    73       81           0
    73       85           0
    73       90           1
    73       94           0
    74        1           2
    74        4           3
    74       35           0
    74       39           3
    74       48           3
    74       51           4
    74       52           3
    74       58           0
    74       65           2
    74       68           1
    75       17           1
    75       23           1
    75       25           3
    75       54           4
    75       86           2
    75       87           4
    75       94           3
    75       96           1
    75       97           2
    75      100           1
    76        2           0
    76        9           1
    76       18           2
    76       48           3
    76       59           0
    76       60           1
    76       66           4
    76       68           3
    76       71           1
    76       85           1
    77        4           1
    77        5           3
    77       10           4
    77       22           4
    77       27           1
    77       32           3
    77       41           2
    77       46           4
    77       66           2
    77       69           3
    78        6           4
    78       20           1
    78       23           3
    78       47           3
    78       48           4
    78       49           4
    78       51           1
    78       53           2
    78       54           1
    78       59           0
    79       15           3
    79       17           0
    79       19           2
    79       32           1
    79       38           1
    79       51           4
    79       71           2
    79       75           4
    79       78           4
    79       86           3
    80        1           0
    80       13           1
    80       18           1
    80       24           2
    80       27           4
    80       33           3
    80       35           1
    80       37           0
    80       50           3
    80       65           3
    81        5           2
    81        6           2
    81       39           1
    81       43           2
    81       53           1
    81       58           0
    81       76           0
    81       86           2
    81       88           0
    81       91           3
    82        1           3
    82        5           0
    82        8           0
    82        9           4
    82       37           0
    82       43           3
    82       49           2
    82       50           0
    82       53           2
    82       75           1
    83        8           3
    83       14           2
    83       17           1
    83       32           4
    83       34           2
    83       36           4
    83       52           0
    83       73           3
    83       75           0
    83       81           2
    84        2           4
    84       11           3
    84       14           4
    84       67           1
    84       82           2
    84       83           3
    84       88           2
    84       89           3
    84       96           1
    84       98           1
    85        9           4
    85       18           3
    85       20           1
    85       27           4
    85       46           1
    85       53           4
    85       62           2
    85       70           3
    85       79           2
    85       83           1
    86       14           4
    86       21           2
    86       32           2
    86       51           3
    86       80           1
    86       84           4
    86       85           3
    86       88           3
    86       91           4
    86       92           3
    87        6           1
    87       16           2
    87       28           4
    87       34           1
    87       36           0
    87       41           3
    87       51           0
    87       55           0
    87       60           1
    87       73           1
    88        4           4
    88       23           4
    88       31           4
    88       37           2
    88       40           2
    88       81           4
    88       89           2
    88       91           1
    88       97           2
    88       99           2
    89       23           4
    89       44           0
    89       51           0
    89       84           3
    89       89           1
    89       91           2
    89       95           2
    89       96           1
    89       98           1
    89      100           2
    90       20           3
    90       53           3
    90       56           1
    90       63           0
    90       83           1
    90       87           3
    90       91           2
    90       93           1
    90       99           0
    90      100           1
    91        6           0
    91       10           0
    91       34           3
    91       35           4
    91       44           2
    91       60           3
    91       64           3
    91       65           1
    91       76           1
    91       80           4
    92        3           2
    92       21           2
    92       22           0
    92       52           2
    92       76           3
    92       95           2
    92       97           0
    92       98           1
    92       99           3
    92      100           3
    93        4           1
    93       16           3
    93       29           3
    93       62           4
    93       64           0
    93       89           0
    93       90           1
    93       93           3
    93       99           1
    93      100           0
    94       11           2
    94       12           2
    94       17           3
    94       26           0
    94       35           2
    94       45           4
    94       46           4
    94       81           2
    94       90           3
    94       93           2
    95        6           0
    95        7           4
    95       13           2
    95       14           3
    95       21           1
    95       42           4
    95       45           3
    95       47           3
    95       65           2
    95       85           1
    96        7           0
    96        8           1
    96       18           4
    96       23           0
    96       44           1
    96       45           1
    96       47           0
    96       52           3
    96       55           2
    96       56           1
    97        4           0
    97       20           0
    97       25           2
    97       30           4
    97       38           2
    97       53           1
    97       61           2
    97       66           0
    97       70           1
    97       84           4
    98        5           4
    98       17           4
    98       24           1
    98       57           1
    98       61           0
    98       65           0
    98       72           3
    98       75           0
    98       76           1
    98       77           1
    99        3           0
    99        4           2
    99       25           3
    99       26           2
    99       31           2
    99       35           1
    99       36           3
    99       42           1
    99       49           1
    99       53           4
   100        1           0
   100       13           1
   100       17           0
   100       67           1
   100       72           4
   100       77           0
   100       78           3
   100       87           4
   100       88           0
   100       94           3
